
List of user-set options:

                                    Name   Value                used
                           compl_inf_tol = 1                     yes
                         constr_viol_tol = 1                     yes
                            dual_inf_tol = 1000                  yes
                           linear_solver = ma97                  yes
                              ma86_small = 1e-30                  no
                                  ma86_u = 0.0001                 no
                              ma97_order = best                  yes
                              ma97_small = 1e-30                 yes
                            ma97_switch1 = at_start              yes
                            ma97_switch2 = od_hd_reuse           yes
                                  ma97_u = 1e-06                 yes
                               ma97_umax = 0.5                   yes
                                max_iter = 1000                  yes
                    max_refinement_steps = 20                    yes
                    min_refinement_steps = 5                     yes
                                 mu_init = 1e-06                 yes
           mu_superlinear_decrease_power = 1.25                  yes
                   nlp_scaling_min_value = 1e-08                 yes
                        option_file_name = Preset_Case_476_pf.opt  yes
                             output_file = ./tmp/Preset_Case_476_pf.output  yes
                      print_user_options = yes                   yes
        required_infeasibility_reduction = 1                      no
                                     tol = 1e-08                 yes
                   warm_start_bound_frac = 1e-20                 yes
                   warm_start_bound_push = 1e-20                 yes
                   warm_start_init_point = yes                   yes
              warm_start_mult_bound_push = 1e-20                 yes
                warm_start_mult_init_max = 1e+40                 yes
             warm_start_slack_bound_frac = 1e-20                 yes
             warm_start_slack_bound_push = 1e-20                 yes

******************************************************************************
This program contains Ipopt, a library for large-scale nonlinear optimization.
 Ipopt is released as open source code under the Eclipse Public License (EPL).
         For more information visit http://projects.coin-or.org/Ipopt
******************************************************************************

This is Ipopt version 3.12.10, running with linear solver ma97.

Number of nonzeros in equality constraint Jacobian...:   123442
Number of nonzeros in inequality constraint Jacobian.:      213
Number of nonzeros in Lagrangian Hessian.............:    49069

Total number of variables............................:    31591
                     variables with only lower bounds:    12912
                variables with lower and upper bounds:    15130
                     variables with only upper bounds:        0
Total number of equality constraints.................:    31483
Total number of inequality constraints...............:       25
        inequality constraints with only lower bounds:        4
   inequality constraints with lower and upper bounds:        0
        inequality constraints with only upper bounds:       21

iter    objective    inf_pr   inf_du lg(mu)  ||d||  lg(rg) alpha_du alpha_pr  ls
   0 -5.0152436e+00 4.08e-03 1.02e+00  -6.0 0.00e+00    -  0.00e+00 0.00e+00   0
   1 -5.0147924e+00 2.97e-01 5.14e+00  -6.0 3.18e+05    -  1.22e-04 2.08e-04h  4
   2 -5.0165020e+00 2.96e-01 3.84e+01  -6.0 6.55e+03    -  1.70e-01 2.11e-03h  1
   3 -5.1823135e+00 1.51e+00 4.48e+02  -6.0 6.52e+03    -  5.45e-02 2.05e-01f  1
   4 -5.2141447e+00 4.73e+00 4.44e+02  -6.0 8.19e+03    -  6.41e-02 5.40e-02h  1
   5 -5.3587035e+00 1.74e+01 7.33e+02  -6.0 3.82e+03    -  9.11e-03 2.72e-01h  1
   6 -5.3756844e+00 1.79e+01 6.87e+02  -6.0 4.11e+03    -  5.43e-02 8.28e-02h  1
   7 -5.3750400e+00 1.75e+01 6.71e+02  -6.0 3.81e+01  -4.0 2.34e-03 2.14e-02h  1
   8 -5.3747016e+00 1.72e+01 6.76e+02  -6.0 1.21e+01  -4.5 2.35e-01 1.47e-02h  1
   9 -5.3931788e+00 1.78e+01 6.39e+02  -6.0 4.22e+03    -  2.06e-02 6.74e-02h  1
iter    objective    inf_pr   inf_du lg(mu)  ||d||  lg(rg) alpha_du alpha_pr  ls
  10 -5.3931131e+00 1.77e+01 6.59e+02  -6.0 2.36e+01  -5.0 4.61e-01 4.84e-03h  1
  11 -5.4215019e+00 1.85e+01 6.33e+02  -6.0 3.42e+03    -  1.63e-01 1.35e-01h  1
  12 -5.4215129e+00 1.85e+01 6.39e+02  -6.0 4.25e+01  -5.4 2.66e-01 3.57e-04h  1
  13 -5.4314331e+00 2.63e+01 6.36e+02  -6.0 7.70e+05    -  1.61e-07 1.61e-03h  1
  14 -5.4619562e+00 4.26e+01 3.75e+05  -6.0 5.25e+03    -  6.85e-06 1.94e-01h  1
  15 -5.4650774e+00 4.01e+01 3.53e+05  -6.0 8.27e+01  -5.9 5.25e-02 5.79e-02h  1
  16 -5.4689381e+00 3.19e+01 2.81e+05  -6.0 5.51e+01  -5.5 1.30e-01 2.03e-01h  1
  17 -5.4756649e+00 2.92e+01 2.57e+05  -6.0 2.33e+02  -6.0 1.70e-01 8.52e-02h  1
  18 -5.5021062e+00 9.14e-01 3.60e+02  -6.0 3.93e+01  -5.5 8.40e-02 1.00e+00h  1
  19 -5.5281842e+00 4.02e-01 7.42e+01  -6.0 6.87e+01  -6.0 7.00e-01 1.00e+00h  1
iter    objective    inf_pr   inf_du lg(mu)  ||d||  lg(rg) alpha_du alpha_pr  ls
  20 -5.5305271e+00 3.74e-01 6.62e+01  -6.0 1.98e+02  -6.5 9.25e-01 7.10e-02h  1
  21 -5.5578208e+00 1.86e+00 5.52e+01  -6.0 1.63e+02  -7.0 4.75e-01 1.00e+00h  1
  22 -5.6209445e+00 1.25e+00 9.45e+01  -6.0 1.07e+03  -7.4 5.62e-01 8.18e-01h  1
  23 -5.6267856e+00 1.23e+00 8.72e+01  -6.0 1.81e+03  -7.9 2.59e-01 7.39e-02h  1
  24 -5.6267818e+00 1.23e+00 1.20e+03  -6.0 8.00e+01  -3.9 1.60e-06 4.38e-04h  1
  25 -5.6226242e+00 9.84e-01 6.96e+01  -6.0 2.85e+01  -4.4 5.78e-02 2.02e-01h  1
  26 -5.6185582e+00 4.64e-01 5.86e+02  -6.0 1.31e+00  -3.9 2.07e-01 5.29e-01h  1
  27 -5.6279753e+00 5.42e-01 5.54e+02  -6.0 2.86e+03    -  4.61e-03 5.44e-02h  1
  28 -5.6278820e+00 5.27e-01 5.39e+02  -6.0 2.57e+00  -4.4 3.26e-02 2.83e-02h  1
  29 -5.6280204e+00 5.26e-01 5.38e+02  -6.0 2.96e+03    -  3.08e-03 7.34e-04h  1
iter    objective    inf_pr   inf_du lg(mu)  ||d||  lg(rg) alpha_du alpha_pr  ls
  30 -5.6246150e+00 9.38e-02 6.76e+01  -6.0 1.58e+00  -4.0 1.00e+00 8.75e-01h  1
  31 -5.6246894e+00 4.09e-04 4.08e-01  -6.0 2.23e+00  -4.5 9.20e-01 1.00e+00h  1
  32 -5.6247501e+00 9.93e-05 4.36e-01  -6.0 7.99e-01  -4.0 1.00e+00 8.21e-01h  1
  33 -5.6248200e+00 5.22e-04 9.96e-02  -6.0 7.77e-01  -4.5 1.00e+00 1.00e+00f  1
  34 -5.6250266e+00 7.84e-04 1.30e-01  -6.0 2.39e+00  -5.0 1.00e+00 1.00e+00h  1
  35 -5.6255496e+00 5.35e-04 5.97e-02  -6.0 7.14e+00  -5.5 1.00e+00 1.00e+00h  1
  36 -5.6270781e+00 4.48e-03 3.55e-02  -6.0 2.13e+01  -5.9 1.00e+00 1.00e+00h  1
  37 -5.6307251e+00 2.78e-02 2.32e-01  -6.0 6.26e+01  -6.4 1.00e+00 8.43e-01h  1
  38 -5.6355322e+00 7.51e-02 2.68e+00  -6.0 1.77e+02  -6.9 1.00e+00 4.14e-01f  1
  39 -5.6524027e+00 1.42e+00 1.15e+01  -6.0 4.60e+02  -7.4 6.64e-01 4.80e-01h  1
iter    objective    inf_pr   inf_du lg(mu)  ||d||  lg(rg) alpha_du alpha_pr  ls
  40 -5.6792758e+00 8.06e+00 1.46e+03  -6.0 3.06e+03    -  1.58e-01 2.00e-01h  1
  41 -5.6833722e+00 7.49e+00 4.60e+04  -6.0 8.22e+02  -7.9 7.24e-01 7.01e-02h  1
  42 -5.7393043e+00 6.37e+01 9.96e+03  -6.0 2.93e+03    -  4.84e-02 5.83e-01h  1
  43 -5.7421372e+00 7.17e+01 2.11e+06  -6.0 3.59e+03  -8.3 9.44e-03 3.50e-01h  1
  44 -5.7427374e+00 6.05e+01 1.79e+06  -6.0 2.08e+02  -7.0 1.96e-01 1.56e-01h  1
  45 -5.7475520e+00 2.15e+01 6.05e+05  -6.0 2.11e+02  -7.5 3.98e-01 6.53e-01h  1
  46 -5.7635536e+00 2.37e+00 1.05e+05  -6.0 3.44e+02  -8.0 7.21e-01 8.90e-01h  1
  47 -5.7695722e+00 1.89e+00 8.90e+05  -6.0 4.51e+02  -8.4 7.93e-01 2.08e-01h  1
  48r-5.7695722e+00 1.89e+00 1.00e+03   0.2 0.00e+00  -8.9 0.00e+00 1.53e-07R  2
  49r-5.7826002e+00 1.89e+00 1.00e+03   0.2 1.23e+04    -  3.89e-06 1.12e-06f  1
iter    objective    inf_pr   inf_du lg(mu)  ||d||  lg(rg) alpha_du alpha_pr  ls
  50 -5.7823449e+00 1.85e+00 5.30e+03  -6.0 7.67e+00    -  3.26e-06 1.73e-02h  1
  51 -5.7817869e+00 1.78e+00 5.10e+03  -6.0 7.67e+00    -  1.43e-01 3.79e-02h  1
  52 -5.7780714e+00 1.32e+00 3.79e+03  -6.0 7.41e+00    -  5.92e-02 2.60e-01h  1
  53 -5.7771179e+00 1.20e+00 3.46e+03  -6.0 5.46e+00    -  4.32e-01 8.85e-02h  1
  54 -5.7723088e+00 6.27e-01 1.80e+03  -6.0 4.83e+00    -  7.01e-01 4.78e-01h  1
  55 -5.7699342e+00 3.12e-01 8.98e+02  -6.0 2.61e+00    -  9.08e-01 5.02e-01h  1
  56 -5.7684369e+00 2.17e-03 8.88e+00  -6.0 7.48e+00    -  8.97e-01 1.00e+00h  1
  57 -5.7710909e+00 6.81e-02 3.75e+00  -6.0 4.67e+01    -  9.42e-01 1.00e+00h  1
  58 -5.7795414e+00 7.39e-01 3.78e+00  -6.0 1.93e+02    -  9.12e-01 7.79e-01h  1
  59 -5.7783439e+00 2.47e-01 9.40e+03  -6.0 4.44e+02    -  3.97e-01 1.00e+00H  1
iter    objective    inf_pr   inf_du lg(mu)  ||d||  lg(rg) alpha_du alpha_pr  ls
  60 -5.7784351e+00 7.86e-01 3.97e+03  -6.0 1.37e+03  -9.4 4.79e-01 3.83e-02h  1
  61 -5.7786771e+00 8.32e-01 3.02e+03  -6.0 8.14e+02    -  2.22e-01 2.37e-01h  3
  62 -5.7787318e+00 9.39e-01 5.76e+03  -6.0 1.36e+03    -  5.59e-01 6.25e-02h  5
  63 -5.7787570e+00 1.03e+00 5.82e+03  -6.0 6.01e+03    -  4.61e-02 1.16e-02h  6
  64 -5.7787799e+00 1.15e+00 6.30e+03  -6.0 1.08e+04    -  1.48e-01 6.82e-03h  6
  65 -5.7788131e+00 1.19e+00 7.87e+03  -6.0 1.95e+03  -9.9 5.53e-01 3.12e-02h  6
  66 -5.7794635e+00 1.20e+02 7.00e+03  -6.0 2.52e+04 -10.3 2.75e-02 9.23e-02h  1
  67 -5.7794797e+00 1.18e+02 6.84e+03  -6.0 1.34e+03  -9.9 8.87e-04 1.63e-02h  1
  68 -5.7795083e+00 1.18e+02 6.70e+03  -6.0 2.03e+04    -  5.66e-05 1.32e-02f  1
  69 -5.7796940e+00 1.09e+02 6.07e+03  -6.0 1.55e+04    -  2.88e-02 7.40e-02h  1
iter    objective    inf_pr   inf_du lg(mu)  ||d||  lg(rg) alpha_du alpha_pr  ls
  70 -5.7796958e+00 1.09e+02 6.39e+03  -6.0 5.22e+03    -  9.02e-02 1.92e-03h  1
  71 -5.7797140e+00 1.07e+02 6.61e+03  -6.0 3.33e+03    -  1.17e-01 1.74e-02h  1
  72 -5.7797517e+00 1.06e+02 6.67e+03  -6.0 2.36e+04    -  5.27e-02 1.13e-02h  1
  73 -5.7799924e+00 9.79e+01 5.88e+03  -6.0 2.02e+04    -  1.71e-02 8.52e-02h  1
  74 -5.7801880e+00 5.21e+01 2.24e+04  -6.0 1.15e+03    -  2.16e-03 5.17e-01h  1
  75 -5.7799248e+00 1.78e+01 7.56e+03  -6.0 8.94e+02    -  1.54e-01 6.58e-01h  1
  76 -5.7799356e+00 1.78e+01 6.46e+03  -6.0 2.81e+03    -  1.56e-01 1.46e-01h  3
  77 -5.7798245e+00 1.22e+00 2.43e+03  -6.0 2.60e+02    -  2.31e-01 1.00e+00h  1
  78 -5.7798072e+00 4.72e-02 1.09e+03  -6.0 2.30e+01  -7.7 5.53e-01 1.00e+00h  1
  79 -5.7798225e+00 6.99e-01 3.49e+01  -6.0 7.48e+02    -  9.68e-01 1.41e-01h  1
iter    objective    inf_pr   inf_du lg(mu)  ||d||  lg(rg) alpha_du alpha_pr  ls
  80 -5.7798325e+00 8.88e-02 3.69e-02  -6.0 7.06e+01    -  1.00e+00 1.00e+00h  1
  81 -5.7798344e+00 1.18e-02 4.57e-03  -6.0 2.50e+01  -8.2 1.00e+00 1.00e+00h  1
  82 -5.7798411e+00 7.64e-02 3.22e-02  -6.0 6.37e+01  -8.6 1.00e+00 1.00e+00h  1
  83 -5.7798846e+00 2.87e+00 3.25e+01  -6.0 2.72e+03    -  6.23e-01 1.42e-01h  1
  84 -5.7799050e+00 3.79e+00 1.98e+01  -6.0 8.80e+02    -  1.00e+00 3.75e-01h  1
  85 -5.7799193e+00 4.67e+00 3.25e+01  -6.0 5.58e+02    -  4.03e-04 3.18e-02H  1
  86 -5.7799258e+00 4.95e+00 2.93e+01  -6.0 2.10e+03    -  4.15e-01 9.64e-02h  1
  87 -5.7799424e+00 2.93e+01 3.15e+01  -6.0 1.29e+03    -  1.01e-02 1.00e+00h  1
  88 -5.7799164e+00 1.38e+00 2.99e+00  -6.0 2.60e+02    -  8.05e-01 1.00e+00h  1
  89 -5.7798887e+00 3.72e-01 1.36e-01  -6.0 1.50e+02    -  1.00e+00 1.00e+00h  1
iter    objective    inf_pr   inf_du lg(mu)  ||d||  lg(rg) alpha_du alpha_pr  ls
  90 -5.7798881e+00 5.83e-06 4.75e-06  -6.0 2.19e-01    -  1.00e+00 1.00e+00h  1
  91 -5.7801027e+00 6.30e+00 1.06e+02  -7.5 7.84e+02    -  4.21e-01 7.85e-01h  1
  92 -5.7800721e+00 1.62e+00 1.09e+02  -7.5 2.47e+02    -  2.85e-01 8.18e-01h  1
  93 -5.7800575e+00 8.03e-02 1.15e+00  -7.5 5.84e+01    -  9.90e-01 1.00e+00h  1
  94 -5.7800570e+00 1.54e-03 1.45e-03  -7.5 9.16e+00    -  1.00e+00 1.00e+00h  1
  95 -5.7800569e+00 3.51e-09 3.80e-09  -7.5 1.42e-02    -  1.00e+00 1.00e+00h  1
  96 -5.7800586e+00 8.28e-03 9.14e-01  -9.0 2.64e+01    -  9.27e-01 8.27e-01h  1
  97 -5.7800588e+00 3.77e-04 1.78e-01  -9.0 4.57e+00    -  9.61e-01 1.00e+00h  1
  98 -5.7800588e+00 8.62e-10 6.27e-09  -9.0 7.36e-03    -  1.00e+00 1.00e+00h  1

Number of Iterations....: 98

                                   (scaled)                 (unscaled)
Objective...............:  -4.5156709429717061e+00   -5.7800588070037842e+00
Dual infeasibility......:   6.2676039221708671e-09    8.0225330203787096e-09
Constraint violation....:   7.0856973062063444e-10    8.6220097728073597e-10
Complementarity.........:   1.3918043402090229e-09    1.7815095554675493e-09
Overall NLP error.......:   6.2676039221708671e-09    8.0225330203787096e-09


Number of objective function evaluations             = 142
Number of objective gradient evaluations             = 99
Number of equality constraint evaluations            = 142
Number of inequality constraint evaluations          = 142
Number of equality constraint Jacobian evaluations   = 100
Number of inequality constraint Jacobian evaluations = 100
Number of Lagrangian Hessian evaluations             = 98
Total CPU secs in IPOPT (w/o function evaluations)   =    253.527
Total CPU secs in NLP function evaluations           =      4.019

EXIT: Optimal Solution Found.
